p cnf 54 792
-10 -11 0
-10 -12 0
-10 -13 0
-10 -14 0
-10 -15 0
-10 -16 0
-10 -17 0
-10 -18 0
-11 -12 0
-11 -13 0
-11 -14 0
-11 -15 0
-11 -16 0
-11 -17 0
-11 -18 0
-12 -13 0
-12 -14 0
-12 -15 0
-12 -16 0
-12 -17 0
-12 -18 0
-13 -14 0
-13 -15 0
-13 -16 0
-13 -17 0
-13 -18 0
-14 -15 0
-14 -16 0
-14 -17 0
-14 -18 0
-15 -16 0
-15 -17 0
-15 -18 0
-16 -17 0
-16 -18 0
-17 -18 0
-19 -20 0
-19 -21 0
-19 -22 0
-19 -23 0
-19 -24 0
-19 -25 0
-19 -26 0
-19 -27 0
-20 -21 0
-20 -22 0
-20 -23 0
-20 -24 0
-20 -25 0
-20 -26 0
-20 -27 0
-21 -22 0
-21 -23 0
-21 -24 0
-21 -25 0
-21 -26 0
-21 -27 0
-22 -23 0
-22 -24 0
-22 -25 0
-22 -26 0
-22 -27 0
-23 -24 0
-23 -25 0
-23 -26 0
-23 -27 0
-24 -25 0
-24 -26 0
-24 -27 0
-25 -26 0
-25 -27 0
-26 -27 0
-28 -29 0
-28 -30 0
-28 -31 0
-28 -32 0
-28 -33 0
-28 -34 0
-28 -35 0
-28 -36 0
-29 -30 0
-29 -31 0
-29 -32 0
-29 -33 0
-29 -34 0
-29 -35 0
-29 -36 0
-30 -31 0
-30 -32 0
-30 -33 0
-30 -34 0
-30 -35 0
-30 -36 0
-31 -32 0
-31 -33 0
-31 -34 0
-31 -35 0
-31 -36 0
-32 -33 0
-32 -34 0
-32 -35 0
-32 -36 0
-33 -34 0
-33 -35 0
-33 -36 0
-34 -35 0
-34 -36 0
-35 -36 0
-37 -38 0
-37 -39 0
-37 -40 0
-37 -41 0
-37 -42 0
-37 -43 0
-37 -44 0
-37 -45 0
-38 -39 0
-38 -40 0
-38 -41 0
-38 -42 0
-38 -43 0
-38 -44 0
-38 -45 0
-39 -40 0
-39 -41 0
-39 -42 0
-39 -43 0
-39 -44 0
-39 -45 0
-40 -41 0
-40 -42 0
-40 -43 0
-40 -44 0
-40 -45 0
-41 -42 0
-41 -43 0
-41 -44 0
-41 -45 0
-42 -43 0
-42 -44 0
-42 -45 0
-43 -44 0
-43 -45 0
-44 -45 0
-46 -47 0
-46 -48 0
-46 -49 0
-46 -50 0
-46 -51 0
-46 -52 0
-46 -53 0
-46 -54 0
-47 -48 0
-47 -49 0
-47 -50 0
-47 -51 0
-47 -52 0
-47 -53 0
-47 -54 0
-48 -49 0
-48 -50 0
-48 -51 0
-48 -52 0
-48 -53 0
-48 -54 0
-49 -50 0
-49 -51 0
-49 -52 0
-49 -53 0
-49 -54 0
-50 -51 0
-50 -52 0
-50 -53 0
-50 -54 0
-51 -52 0
-51 -53 0
-51 -54 0
-52 -53 0
-52 -54 0
-53 -54 0
-11 -10 0
-12 -10 0
-13 -10 0
-14 -10 0
-15 -10 0
-16 -10 0
-17 -10 0
-18 -10 0
-12 -11 0
-13 -11 0
-14 -11 0
-15 -11 0
-16 -11 0
-17 -11 0
-18 -11 0
-13 -12 0
-14 -12 0
-15 -12 0
-16 -12 0
-17 -12 0
-18 -12 0
-14 -13 0
-15 -13 0
-16 -13 0
-17 -13 0
-18 -13 0
-15 -14 0
-16 -14 0
-17 -14 0
-18 -14 0
-16 -15 0
-17 -15 0
-18 -15 0
-17 -16 0
-18 -16 0
-18 -17 0
-11 -19 0
-12 -19 0
-13 -19 0
-14 -19 0
-15 -19 0
-16 -19 0
-17 -19 0
-18 -19 0
-12 -20 0
-13 -20 0
-14 -20 0
-15 -20 0
-16 -20 0
-17 -20 0
-18 -20 0
-13 -21 0
-14 -21 0
-15 -21 0
-16 -21 0
-17 -21 0
-18 -21 0
-14 -22 0
-15 -22 0
-16 -22 0
-17 -22 0
-18 -22 0
-15 -23 0
-16 -23 0
-17 -23 0
-18 -23 0
-16 -24 0
-17 -24 0
-18 -24 0
-17 -25 0
-18 -25 0
-18 -26 0
-11 -28 0
-12 -28 0
-13 -28 0
-14 -28 0
-15 -28 0
-16 -28 0
-17 -28 0
-18 -28 0
-12 -29 0
-13 -29 0
-14 -29 0
-15 -29 0
-16 -29 0
-17 -29 0
-18 -29 0
-13 -30 0
-14 -30 0
-15 -30 0
-16 -30 0
-17 -30 0
-18 -30 0
-14 -31 0
-15 -31 0
-16 -31 0
-17 -31 0
-18 -31 0
-15 -32 0
-16 -32 0
-17 -32 0
-18 -32 0
-16 -33 0
-17 -33 0
-18 -33 0
-17 -34 0
-18 -34 0
-18 -35 0
-11 -37 0
-12 -37 0
-13 -37 0
-14 -37 0
-15 -37 0
-16 -37 0
-17 -37 0
-18 -37 0
-12 -38 0
-13 -38 0
-14 -38 0
-15 -38 0
-16 -38 0
-17 -38 0
-18 -38 0
-13 -39 0
-14 -39 0
-15 -39 0
-16 -39 0
-17 -39 0
-18 -39 0
-14 -40 0
-15 -40 0
-16 -40 0
-17 -40 0
-18 -40 0
-15 -41 0
-16 -41 0
-17 -41 0
-18 -41 0
-16 -42 0
-17 -42 0
-18 -42 0
-17 -43 0
-18 -43 0
-18 -44 0
-11 -46 0
-12 -46 0
-13 -46 0
-14 -46 0
-15 -46 0
-16 -46 0
-17 -46 0
-18 -46 0
-12 -47 0
-13 -47 0
-14 -47 0
-15 -47 0
-16 -47 0
-17 -47 0
-18 -47 0
-13 -48 0
-14 -48 0
-15 -48 0
-16 -48 0
-17 -48 0
-18 -48 0
-14 -49 0
-15 -49 0
-16 -49 0
-17 -49 0
-18 -49 0
-15 -50 0
-16 -50 0
-17 -50 0
-18 -50 0
-16 -51 0
-17 -51 0
-18 -51 0
-17 -52 0
-18 -52 0
-18 -53 0
-20 -19 0
-21 -19 0
-22 -19 0
-23 -19 0
-24 -19 0
-25 -19 0
-26 -19 0
-27 -19 0
-21 -20 0
-22 -20 0
-23 -20 0
-24 -20 0
-25 -20 0
-26 -20 0
-27 -20 0
-22 -21 0
-23 -21 0
-24 -21 0
-25 -21 0
-26 -21 0
-27 -21 0
-23 -22 0
-24 -22 0
-25 -22 0
-26 -22 0
-27 -22 0
-24 -23 0
-25 -23 0
-26 -23 0
-27 -23 0
-25 -24 0
-26 -24 0
-27 -24 0
-26 -25 0
-27 -25 0
-27 -26 0
-20 -28 0
-21 -28 0
-22 -28 0
-23 -28 0
-24 -28 0
-25 -28 0
-26 -28 0
-27 -28 0
-21 -29 0
-22 -29 0
-23 -29 0
-24 -29 0
-25 -29 0
-26 -29 0
-27 -29 0
-22 -30 0
-23 -30 0
-24 -30 0
-25 -30 0
-26 -30 0
-27 -30 0
-23 -31 0
-24 -31 0
-25 -31 0
-26 -31 0
-27 -31 0
-24 -32 0
-25 -32 0
-26 -32 0
-27 -32 0
-25 -33 0
-26 -33 0
-27 -33 0
-26 -34 0
-27 -34 0
-27 -35 0
-20 -37 0
-21 -37 0
-22 -37 0
-23 -37 0
-24 -37 0
-25 -37 0
-26 -37 0
-27 -37 0
-21 -38 0
-22 -38 0
-23 -38 0
-24 -38 0
-25 -38 0
-26 -38 0
-27 -38 0
-22 -39 0
-23 -39 0
-24 -39 0
-25 -39 0
-26 -39 0
-27 -39 0
-23 -40 0
-24 -40 0
-25 -40 0
-26 -40 0
-27 -40 0
-24 -41 0
-25 -41 0
-26 -41 0
-27 -41 0
-25 -42 0
-26 -42 0
-27 -42 0
-26 -43 0
-27 -43 0
-27 -44 0
-20 -46 0
-21 -46 0
-22 -46 0
-23 -46 0
-24 -46 0
-25 -46 0
-26 -46 0
-27 -46 0
-21 -47 0
-22 -47 0
-23 -47 0
-24 -47 0
-25 -47 0
-26 -47 0
-27 -47 0
-22 -48 0
-23 -48 0
-24 -48 0
-25 -48 0
-26 -48 0
-27 -48 0
-23 -49 0
-24 -49 0
-25 -49 0
-26 -49 0
-27 -49 0
-24 -50 0
-25 -50 0
-26 -50 0
-27 -50 0
-25 -51 0
-26 -51 0
-27 -51 0
-26 -52 0
-27 -52 0
-27 -53 0
-29 -28 0
-30 -28 0
-31 -28 0
-32 -28 0
-33 -28 0
-34 -28 0
-35 -28 0
-36 -28 0
-30 -29 0
-31 -29 0
-32 -29 0
-33 -29 0
-34 -29 0
-35 -29 0
-36 -29 0
-31 -30 0
-32 -30 0
-33 -30 0
-34 -30 0
-35 -30 0
-36 -30 0
-32 -31 0
-33 -31 0
-34 -31 0
-35 -31 0
-36 -31 0
-33 -32 0
-34 -32 0
-35 -32 0
-36 -32 0
-34 -33 0
-35 -33 0
-36 -33 0
-35 -34 0
-36 -34 0
-36 -35 0
-29 -37 0
-30 -37 0
-31 -37 0
-32 -37 0
-33 -37 0
-34 -37 0
-35 -37 0
-36 -37 0
-30 -38 0
-31 -38 0
-32 -38 0
-33 -38 0
-34 -38 0
-35 -38 0
-36 -38 0
-31 -39 0
-32 -39 0
-33 -39 0
-34 -39 0
-35 -39 0
-36 -39 0
-32 -40 0
-33 -40 0
-34 -40 0
-35 -40 0
-36 -40 0
-33 -41 0
-34 -41 0
-35 -41 0
-36 -41 0
-34 -42 0
-35 -42 0
-36 -42 0
-35 -43 0
-36 -43 0
-36 -44 0
-29 -46 0
-30 -46 0
-31 -46 0
-32 -46 0
-33 -46 0
-34 -46 0
-35 -46 0
-36 -46 0
-30 -47 0
-31 -47 0
-32 -47 0
-33 -47 0
-34 -47 0
-35 -47 0
-36 -47 0
-31 -48 0
-32 -48 0
-33 -48 0
-34 -48 0
-35 -48 0
-36 -48 0
-32 -49 0
-33 -49 0
-34 -49 0
-35 -49 0
-36 -49 0
-33 -50 0
-34 -50 0
-35 -50 0
-36 -50 0
-34 -51 0
-35 -51 0
-36 -51 0
-35 -52 0
-36 -52 0
-36 -53 0
-38 -37 0
-39 -37 0
-40 -37 0
-41 -37 0
-42 -37 0
-43 -37 0
-44 -37 0
-45 -37 0
-39 -38 0
-40 -38 0
-41 -38 0
-42 -38 0
-43 -38 0
-44 -38 0
-45 -38 0
-40 -39 0
-41 -39 0
-42 -39 0
-43 -39 0
-44 -39 0
-45 -39 0
-41 -40 0
-42 -40 0
-43 -40 0
-44 -40 0
-45 -40 0
-42 -41 0
-43 -41 0
-44 -41 0
-45 -41 0
-43 -42 0
-44 -42 0
-45 -42 0
-44 -43 0
-45 -43 0
-45 -44 0
-38 -46 0
-39 -46 0
-40 -46 0
-41 -46 0
-42 -46 0
-43 -46 0
-44 -46 0
-45 -46 0
-39 -47 0
-40 -47 0
-41 -47 0
-42 -47 0
-43 -47 0
-44 -47 0
-45 -47 0
-40 -48 0
-41 -48 0
-42 -48 0
-43 -48 0
-44 -48 0
-45 -48 0
-41 -49 0
-42 -49 0
-43 -49 0
-44 -49 0
-45 -49 0
-42 -50 0
-43 -50 0
-44 -50 0
-45 -50 0
-43 -51 0
-44 -51 0
-45 -51 0
-44 -52 0
-45 -52 0
-45 -53 0
-47 -46 0
-48 -46 0
-49 -46 0
-50 -46 0
-51 -46 0
-52 -46 0
-53 -46 0
-54 -46 0
-48 -47 0
-49 -47 0
-50 -47 0
-51 -47 0
-52 -47 0
-53 -47 0
-54 -47 0
-49 -48 0
-50 -48 0
-51 -48 0
-52 -48 0
-53 -48 0
-54 -48 0
-50 -49 0
-51 -49 0
-52 -49 0
-53 -49 0
-54 -49 0
-51 -50 0
-52 -50 0
-53 -50 0
-54 -50 0
-52 -51 0
-53 -51 0
-54 -51 0
-53 -52 0
-54 -52 0
-54 -53 0
-10 1 0
-11 2 0
-12 3 0
-13 4 0
-14 5 0
-15 6 0
-16 7 0
-17 8 0
-18 9 0
-19 1 0
-20 2 0
-21 3 0
-22 4 0
-23 5 0
-24 6 0
-25 7 0
-26 8 0
-27 9 0
-28 1 0
-29 2 0
-30 3 0
-31 4 0
-32 5 0
-33 6 0
-34 7 0
-35 8 0
-36 9 0
-37 1 0
-38 2 0
-39 3 0
-40 4 0
-41 5 0
-42 6 0
-43 7 0
-44 8 0
-45 9 0
-46 1 0
-47 2 0
-48 3 0
-49 4 0
-50 5 0
-51 6 0
-52 7 0
-53 8 0
-54 9 0
-1 10 19 28 37 46 0
-2 11 20 29 38 47 0
-3 12 21 30 39 48 0
-4 13 22 31 40 49 0
-5 14 23 32 41 50 0
-6 15 24 33 42 51 0
-7 16 25 34 43 52 0
-8 17 26 35 44 53 0
-9 18 27 36 45 54 0
1 3 0
1 4 0
1 5 0
1 6 0
1 7 0
1 8 0
2 6 0
2 9 0
3 7 0
3 8 0
4 6 0
4 7 0
4 9 0
5 6 0
5 8 0
6 8 0
7 8 0
7 9 0
